(set-logic UFDT)
(declare-datatypes ((nat 0)) (((zero) (s (s0 nat)))))
(declare-fun add (nat nat) nat)
(non-erasing add 2)
(injective add (true true))
(declare-fun leq (nat nat) Bool)
(assert (forall ((y nat)) (= (add zero y) y)))
(assert (forall ((x nat) (y nat)) (= (add (s x) y) (s (add x y)))))
(assert (forall ((y nat)) (leq zero y)))
(assert (forall ((x nat)) (not (leq (s x) zero))))
(assert (forall ((x nat) (y nat)) (= (leq (s x) (s y)) (leq x y))))
(assert (not (forall ((v0 nat) (v1 nat) (v2 nat)) (= (s (s (add (add v1 (s zero)) (add (s v2) (s v0))))) (add (s (add (s v2) (add v0 (s (s (s v1)))))) zero)))))
(check-sat)
